c File: flat150_3_0.col
c
c SOURCE: Joseph Culberson (joe@cs.ualberta.ca)
c DESCRIPTION: Quasi-random coloring problem
c              generated with flatness = 0
c                             probability = 0.048
c                             known coloring = 3
c                             random seed = 1064
c              Creation Date:  Wed Feb 24 10:37:39 1999
c Maximum degree = 8 Minimum degree = 1
c COLOR VERIFICATION: Using the permuted order
c under simple greedy yields the specified
c coloring number
c Color = 3 specified partitions = 3
c p edge 150 360
c cnf created by edge2cnf
p cnf 450 1680
-1 -2 0
-1 -3 0
-2 -3 0
1 2 3 0
-4 -5 0
-4 -6 0
-5 -6 0
4 5 6 0
-7 -8 0
-7 -9 0
-8 -9 0
7 8 9 0
-10 -11 0
-10 -12 0
-11 -12 0
10 11 12 0
-13 -14 0
-13 -15 0
-14 -15 0
13 14 15 0
-16 -17 0
-16 -18 0
-17 -18 0
16 17 18 0
-19 -20 0
-19 -21 0
-20 -21 0
19 20 21 0
-22 -23 0
-22 -24 0
-23 -24 0
22 23 24 0
-25 -26 0
-25 -27 0
-26 -27 0
25 26 27 0
-28 -29 0
-28 -30 0
-29 -30 0
28 29 30 0
-31 -32 0
-31 -33 0
-32 -33 0
31 32 33 0
-34 -35 0
-34 -36 0
-35 -36 0
34 35 36 0
-37 -38 0
-37 -39 0
-38 -39 0
37 38 39 0
-40 -41 0
-40 -42 0
-41 -42 0
40 41 42 0
-43 -44 0
-43 -45 0
-44 -45 0
43 44 45 0
-46 -47 0
-46 -48 0
-47 -48 0
46 47 48 0
-49 -50 0
-49 -51 0
-50 -51 0
49 50 51 0
-52 -53 0
-52 -54 0
-53 -54 0
52 53 54 0
-55 -56 0
-55 -57 0
-56 -57 0
55 56 57 0
-58 -59 0
-58 -60 0
-59 -60 0
58 59 60 0
-61 -62 0
-61 -63 0
-62 -63 0
61 62 63 0
-64 -65 0
-64 -66 0
-65 -66 0
64 65 66 0
-67 -68 0
-67 -69 0
-68 -69 0
67 68 69 0
-70 -71 0
-70 -72 0
-71 -72 0
70 71 72 0
-73 -74 0
-73 -75 0
-74 -75 0
73 74 75 0
-76 -77 0
-76 -78 0
-77 -78 0
76 77 78 0
-79 -80 0
-79 -81 0
-80 -81 0
79 80 81 0
-82 -83 0
-82 -84 0
-83 -84 0
82 83 84 0
-85 -86 0
-85 -87 0
-86 -87 0
85 86 87 0
-88 -89 0
-88 -90 0
-89 -90 0
88 89 90 0
-91 -92 0
-91 -93 0
-92 -93 0
91 92 93 0
-94 -95 0
-94 -96 0
-95 -96 0
94 95 96 0
-97 -98 0
-97 -99 0
-98 -99 0
97 98 99 0
-100 -101 0
-100 -102 0
-101 -102 0
100 101 102 0
-103 -104 0
-103 -105 0
-104 -105 0
103 104 105 0
-106 -107 0
-106 -108 0
-107 -108 0
106 107 108 0
-109 -110 0
-109 -111 0
-110 -111 0
109 110 111 0
-112 -113 0
-112 -114 0
-113 -114 0
112 113 114 0
-115 -116 0
-115 -117 0
-116 -117 0
115 116 117 0
-118 -119 0
-118 -120 0
-119 -120 0
118 119 120 0
-121 -122 0
-121 -123 0
-122 -123 0
121 122 123 0
-124 -125 0
-124 -126 0
-125 -126 0
124 125 126 0
-127 -128 0
-127 -129 0
-128 -129 0
127 128 129 0
-130 -131 0
-130 -132 0
-131 -132 0
130 131 132 0
-133 -134 0
-133 -135 0
-134 -135 0
133 134 135 0
-136 -137 0
-136 -138 0
-137 -138 0
136 137 138 0
-139 -140 0
-139 -141 0
-140 -141 0
139 140 141 0
-142 -143 0
-142 -144 0
-143 -144 0
142 143 144 0
-145 -146 0
-145 -147 0
-146 -147 0
145 146 147 0
-148 -149 0
-148 -150 0
-149 -150 0
148 149 150 0
-151 -152 0
-151 -153 0
-152 -153 0
151 152 153 0
-154 -155 0
-154 -156 0
-155 -156 0
154 155 156 0
-157 -158 0
-157 -159 0
-158 -159 0
157 158 159 0
-160 -161 0
-160 -162 0
-161 -162 0
160 161 162 0
-163 -164 0
-163 -165 0
-164 -165 0
163 164 165 0
-166 -167 0
-166 -168 0
-167 -168 0
166 167 168 0
-169 -170 0
-169 -171 0
-170 -171 0
169 170 171 0
-172 -173 0
-172 -174 0
-173 -174 0
172 173 174 0
-175 -176 0
-175 -177 0
-176 -177 0
175 176 177 0
-178 -179 0
-178 -180 0
-179 -180 0
178 179 180 0
-181 -182 0
-181 -183 0
-182 -183 0
181 182 183 0
-184 -185 0
-184 -186 0
-185 -186 0
184 185 186 0
-187 -188 0
-187 -189 0
-188 -189 0
187 188 189 0
-190 -191 0
-190 -192 0
-191 -192 0
190 191 192 0
-193 -194 0
-193 -195 0
-194 -195 0
193 194 195 0
-196 -197 0
-196 -198 0
-197 -198 0
196 197 198 0
-199 -200 0
-199 -201 0
-200 -201 0
199 200 201 0
-202 -203 0
-202 -204 0
-203 -204 0
202 203 204 0
-205 -206 0
-205 -207 0
-206 -207 0
205 206 207 0
-208 -209 0
-208 -210 0
-209 -210 0
208 209 210 0
-211 -212 0
-211 -213 0
-212 -213 0
211 212 213 0
-214 -215 0
-214 -216 0
-215 -216 0
214 215 216 0
-217 -218 0
-217 -219 0
-218 -219 0
217 218 219 0
-220 -221 0
-220 -222 0
-221 -222 0
220 221 222 0
-223 -224 0
-223 -225 0
-224 -225 0
223 224 225 0
-226 -227 0
-226 -228 0
-227 -228 0
226 227 228 0
-229 -230 0
-229 -231 0
-230 -231 0
229 230 231 0
-232 -233 0
-232 -234 0
-233 -234 0
232 233 234 0
-235 -236 0
-235 -237 0
-236 -237 0
235 236 237 0
-238 -239 0
-238 -240 0
-239 -240 0
238 239 240 0
-241 -242 0
-241 -243 0
-242 -243 0
241 242 243 0
-244 -245 0
-244 -246 0
-245 -246 0
244 245 246 0
-247 -248 0
-247 -249 0
-248 -249 0
247 248 249 0
-250 -251 0
-250 -252 0
-251 -252 0
250 251 252 0
-253 -254 0
-253 -255 0
-254 -255 0
253 254 255 0
-256 -257 0
-256 -258 0
-257 -258 0
256 257 258 0
-259 -260 0
-259 -261 0
-260 -261 0
259 260 261 0
-262 -263 0
-262 -264 0
-263 -264 0
262 263 264 0
-265 -266 0
-265 -267 0
-266 -267 0
265 266 267 0
-268 -269 0
-268 -270 0
-269 -270 0
268 269 270 0
-271 -272 0
-271 -273 0
-272 -273 0
271 272 273 0
-274 -275 0
-274 -276 0
-275 -276 0
274 275 276 0
-277 -278 0
-277 -279 0
-278 -279 0
277 278 279 0
-280 -281 0
-280 -282 0
-281 -282 0
280 281 282 0
-283 -284 0
-283 -285 0
-284 -285 0
283 284 285 0
-286 -287 0
-286 -288 0
-287 -288 0
286 287 288 0
-289 -290 0
-289 -291 0
-290 -291 0
289 290 291 0
-292 -293 0
-292 -294 0
-293 -294 0
292 293 294 0
-295 -296 0
-295 -297 0
-296 -297 0
295 296 297 0
-298 -299 0
-298 -300 0
-299 -300 0
298 299 300 0
-301 -302 0
-301 -303 0
-302 -303 0
301 302 303 0
-304 -305 0
-304 -306 0
-305 -306 0
304 305 306 0
-307 -308 0
-307 -309 0
-308 -309 0
307 308 309 0
-310 -311 0
-310 -312 0
-311 -312 0
310 311 312 0
-313 -314 0
-313 -315 0
-314 -315 0
313 314 315 0
-316 -317 0
-316 -318 0
-317 -318 0
316 317 318 0
-319 -320 0
-319 -321 0
-320 -321 0
319 320 321 0
-322 -323 0
-322 -324 0
-323 -324 0
322 323 324 0
-325 -326 0
-325 -327 0
-326 -327 0
325 326 327 0
-328 -329 0
-328 -330 0
-329 -330 0
328 329 330 0
-331 -332 0
-331 -333 0
-332 -333 0
331 332 333 0
-334 -335 0
-334 -336 0
-335 -336 0
334 335 336 0
-337 -338 0
-337 -339 0
-338 -339 0
337 338 339 0
-340 -341 0
-340 -342 0
-341 -342 0
340 341 342 0
-343 -344 0
-343 -345 0
-344 -345 0
343 344 345 0
-346 -347 0
-346 -348 0
-347 -348 0
346 347 348 0
-349 -350 0
-349 -351 0
-350 -351 0
349 350 351 0
-352 -353 0
-352 -354 0
-353 -354 0
352 353 354 0
-355 -356 0
-355 -357 0
-356 -357 0
355 356 357 0
-358 -359 0
-358 -360 0
-359 -360 0
358 359 360 0
-361 -362 0
-361 -363 0
-362 -363 0
361 362 363 0
-364 -365 0
-364 -366 0
-365 -366 0
364 365 366 0
-367 -368 0
-367 -369 0
-368 -369 0
367 368 369 0
-370 -371 0
-370 -372 0
-371 -372 0
370 371 372 0
-373 -374 0
-373 -375 0
-374 -375 0
373 374 375 0
-376 -377 0
-376 -378 0
-377 -378 0
376 377 378 0
-379 -380 0
-379 -381 0
-380 -381 0
379 380 381 0
-382 -383 0
-382 -384 0
-383 -384 0
382 383 384 0
-385 -386 0
-385 -387 0
-386 -387 0
385 386 387 0
-388 -389 0
-388 -390 0
-389 -390 0
388 389 390 0
-391 -392 0
-391 -393 0
-392 -393 0
391 392 393 0
-394 -395 0
-394 -396 0
-395 -396 0
394 395 396 0
-397 -398 0
-397 -399 0
-398 -399 0
397 398 399 0
-400 -401 0
-400 -402 0
-401 -402 0
400 401 402 0
-403 -404 0
-403 -405 0
-404 -405 0
403 404 405 0
-406 -407 0
-406 -408 0
-407 -408 0
406 407 408 0
-409 -410 0
-409 -411 0
-410 -411 0
409 410 411 0
-412 -413 0
-412 -414 0
-413 -414 0
412 413 414 0
-415 -416 0
-415 -417 0
-416 -417 0
415 416 417 0
-418 -419 0
-418 -420 0
-419 -420 0
418 419 420 0
-421 -422 0
-421 -423 0
-422 -423 0
421 422 423 0
-424 -425 0
-424 -426 0
-425 -426 0
424 425 426 0
-427 -428 0
-427 -429 0
-428 -429 0
427 428 429 0
-430 -431 0
-430 -432 0
-431 -432 0
430 431 432 0
-433 -434 0
-433 -435 0
-434 -435 0
433 434 435 0
-436 -437 0
-436 -438 0
-437 -438 0
436 437 438 0
-439 -440 0
-439 -441 0
-440 -441 0
439 440 441 0
-442 -443 0
-442 -444 0
-443 -444 0
442 443 444 0
-445 -446 0
-445 -447 0
-446 -447 0
445 446 447 0
-448 -449 0
-448 -450 0
-449 -450 0
448 449 450 0
-130 -1 0
-131 -2 0
-132 -3 0
-193 -1 0
-194 -2 0
-195 -3 0
-226 -1 0
-227 -2 0
-228 -3 0
-259 -1 0
-260 -2 0
-261 -3 0
-85 -4 0
-86 -5 0
-87 -6 0
-91 -4 0
-92 -5 0
-93 -6 0
-157 -4 0
-158 -5 0
-159 -6 0
-193 -4 0
-194 -5 0
-195 -6 0
-331 -4 0
-332 -5 0
-333 -6 0
-442 -4 0
-443 -5 0
-444 -6 0
-244 -7 0
-245 -8 0
-246 -9 0
-16 -10 0
-17 -11 0
-18 -12 0
-43 -10 0
-44 -11 0
-45 -12 0
-61 -10 0
-62 -11 0
-63 -12 0
-73 -10 0
-74 -11 0
-75 -12 0
-250 -10 0
-251 -11 0
-252 -12 0
-295 -10 0
-296 -11 0
-297 -12 0
-367 -10 0
-368 -11 0
-369 -12 0
-370 -10 0
-371 -11 0
-372 -12 0
-22 -13 0
-23 -14 0
-24 -15 0
-88 -13 0
-89 -14 0
-90 -15 0
-352 -13 0
-353 -14 0
-354 -15 0
-145 -16 0
-146 -17 0
-147 -18 0
-49 -19 0
-50 -20 0
-51 -21 0
-88 -19 0
-89 -20 0
-90 -21 0
-208 -19 0
-209 -20 0
-210 -21 0
-274 -19 0
-275 -20 0
-276 -21 0
-316 -19 0
-317 -20 0
-318 -21 0
-364 -19 0
-365 -20 0
-366 -21 0
-55 -22 0
-56 -23 0
-57 -24 0
-70 -22 0
-71 -23 0
-72 -24 0
-127 -22 0
-128 -23 0
-129 -24 0
-226 -22 0
-227 -23 0
-228 -24 0
-346 -22 0
-347 -23 0
-348 -24 0
-373 -22 0
-374 -23 0
-375 -24 0
-58 -25 0
-59 -26 0
-60 -27 0
-115 -25 0
-116 -26 0
-117 -27 0
-187 -25 0
-188 -26 0
-189 -27 0
-238 -25 0
-239 -26 0
-240 -27 0
-331 -25 0
-332 -26 0
-333 -27 0
-46 -28 0
-47 -29 0
-48 -30 0
-103 -28 0
-104 -29 0
-105 -30 0
-214 -28 0
-215 -29 0
-216 -30 0
-223 -28 0
-224 -29 0
-225 -30 0
-241 -28 0
-242 -29 0
-243 -30 0
-319 -28 0
-320 -29 0
-321 -30 0
-370 -28 0
-371 -29 0
-372 -30 0
-55 -31 0
-56 -32 0
-57 -33 0
-64 -31 0
-65 -32 0
-66 -33 0
-202 -31 0
-203 -32 0
-204 -33 0
-235 -31 0
-236 -32 0
-237 -33 0
-241 -31 0
-242 -32 0
-243 -33 0
-250 -31 0
-251 -32 0
-252 -33 0
-448 -31 0
-449 -32 0
-450 -33 0
-82 -34 0
-83 -35 0
-84 -36 0
-97 -34 0
-98 -35 0
-99 -36 0
-211 -34 0
-212 -35 0
-213 -36 0
-217 -34 0
-218 -35 0
-219 -36 0
-235 -34 0
-236 -35 0
-237 -36 0
-328 -34 0
-329 -35 0
-330 -36 0
-100 -37 0
-101 -38 0
-102 -39 0
-319 -37 0
-320 -38 0
-321 -39 0
-355 -37 0
-356 -38 0
-357 -39 0
-286 -40 0
-287 -41 0
-288 -42 0
-94 -43 0
-95 -44 0
-96 -45 0
-226 -43 0
-227 -44 0
-228 -45 0
-253 -43 0
-254 -44 0
-255 -45 0
-385 -43 0
-386 -44 0
-387 -45 0
-73 -46 0
-74 -47 0
-75 -48 0
-136 -46 0
-137 -47 0
-138 -48 0
-115 -49 0
-116 -50 0
-117 -51 0
-232 -49 0
-233 -50 0
-234 -51 0
-391 -49 0
-392 -50 0
-393 -51 0
-64 -52 0
-65 -53 0
-66 -54 0
-109 -52 0
-110 -53 0
-111 -54 0
-268 -52 0
-269 -53 0
-270 -54 0
-394 -52 0
-395 -53 0
-396 -54 0
-412 -52 0
-413 -53 0
-414 -54 0
-424 -52 0
-425 -53 0
-426 -54 0
-181 -55 0
-182 -56 0
-183 -57 0
-244 -55 0
-245 -56 0
-246 -57 0
-409 -55 0
-410 -56 0
-411 -57 0
-118 -58 0
-119 -59 0
-120 -60 0
-217 -58 0
-218 -59 0
-219 -60 0
-268 -58 0
-269 -59 0
-270 -60 0
-94 -61 0
-95 -62 0
-96 -63 0
-109 -61 0
-110 -62 0
-111 -63 0
-430 -61 0
-431 -62 0
-432 -63 0
-433 -61 0
-434 -62 0
-435 -63 0
-109 -64 0
-110 -65 0
-111 -66 0
-202 -64 0
-203 -65 0
-204 -66 0
-304 -64 0
-305 -65 0
-306 -66 0
-385 -64 0
-386 -65 0
-387 -66 0
-445 -64 0
-446 -65 0
-447 -66 0
-91 -67 0
-92 -68 0
-93 -69 0
-94 -67 0
-95 -68 0
-96 -69 0
-163 -67 0
-164 -68 0
-165 -69 0
-265 -67 0
-266 -68 0
-267 -69 0
-412 -67 0
-413 -68 0
-414 -69 0
-106 -70 0
-107 -71 0
-108 -72 0
-175 -70 0
-176 -71 0
-177 -72 0
-142 -73 0
-143 -74 0
-144 -75 0
-205 -73 0
-206 -74 0
-207 -75 0
-262 -73 0
-263 -74 0
-264 -75 0
-394 -73 0
-395 -74 0
-396 -75 0
-439 -73 0
-440 -74 0
-441 -75 0
-208 -76 0
-209 -77 0
-210 -78 0
-295 -76 0
-296 -77 0
-297 -78 0
-310 -76 0
-311 -77 0
-312 -78 0
-259 -79 0
-260 -80 0
-261 -81 0
-412 -79 0
-413 -80 0
-414 -81 0
-217 -82 0
-218 -83 0
-219 -84 0
-223 -82 0
-224 -83 0
-225 -84 0
-304 -82 0
-305 -83 0
-306 -84 0
-370 -82 0
-371 -83 0
-372 -84 0
-406 -82 0
-407 -83 0
-408 -84 0
-178 -85 0
-179 -86 0
-180 -87 0
-223 -85 0
-224 -86 0
-225 -87 0
-250 -85 0
-251 -86 0
-252 -87 0
-292 -85 0
-293 -86 0
-294 -87 0
-298 -85 0
-299 -86 0
-300 -87 0
-352 -85 0
-353 -86 0
-354 -87 0
-358 -85 0
-359 -86 0
-360 -87 0
-223 -88 0
-224 -89 0
-225 -90 0
-388 -88 0
-389 -89 0
-390 -90 0
-124 -91 0
-125 -92 0
-126 -93 0
-190 -91 0
-191 -92 0
-192 -93 0
-268 -91 0
-269 -92 0
-270 -93 0
-277 -91 0
-278 -92 0
-279 -93 0
-376 -91 0
-377 -92 0
-378 -93 0
-262 -94 0
-263 -95 0
-264 -96 0
-271 -94 0
-272 -95 0
-273 -96 0
-274 -94 0
-275 -95 0
-276 -96 0
-286 -94 0
-287 -95 0
-288 -96 0
-109 -97 0
-110 -98 0
-111 -99 0
-118 -97 0
-119 -98 0
-120 -99 0
-427 -97 0
-428 -98 0
-429 -99 0
-436 -97 0
-437 -98 0
-438 -99 0
-109 -100 0
-110 -101 0
-111 -102 0
-157 -100 0
-158 -101 0
-159 -102 0
-199 -100 0
-200 -101 0
-201 -102 0
-292 -100 0
-293 -101 0
-294 -102 0
-385 -100 0
-386 -101 0
-387 -102 0
-211 -103 0
-212 -104 0
-213 -105 0
-118 -106 0
-119 -107 0
-120 -108 0
-268 -106 0
-269 -107 0
-270 -108 0
-280 -106 0
-281 -107 0
-282 -108 0
-298 -106 0
-299 -107 0
-300 -108 0
-208 -109 0
-209 -110 0
-210 -111 0
-217 -109 0
-218 -110 0
-219 -111 0
-247 -109 0
-248 -110 0
-249 -111 0
-133 -112 0
-134 -113 0
-135 -114 0
-229 -112 0
-230 -113 0
-231 -114 0
-298 -112 0
-299 -113 0
-300 -114 0
-424 -112 0
-425 -113 0
-426 -114 0
-448 -112 0
-449 -113 0
-450 -114 0
-178 -115 0
-179 -116 0
-180 -117 0
-145 -118 0
-146 -119 0
-147 -120 0
-271 -118 0
-272 -119 0
-273 -120 0
-355 -118 0
-356 -119 0
-357 -120 0
-376 -118 0
-377 -119 0
-378 -120 0
-379 -118 0
-380 -119 0
-381 -120 0
-289 -121 0
-290 -122 0
-291 -123 0
-316 -121 0
-317 -122 0
-318 -123 0
-343 -121 0
-344 -122 0
-345 -123 0
-421 -121 0
-422 -122 0
-423 -123 0
-436 -121 0
-437 -122 0
-438 -123 0
-190 -124 0
-191 -125 0
-192 -126 0
-169 -127 0
-170 -128 0
-171 -129 0
-286 -127 0
-287 -128 0
-288 -129 0
-370 -127 0
-371 -128 0
-372 -129 0
-409 -127 0
-410 -128 0
-411 -129 0
-427 -127 0
-428 -128 0
-429 -129 0
-412 -130 0
-413 -131 0
-414 -132 0
-244 -133 0
-245 -134 0
-246 -135 0
-247 -133 0
-248 -134 0
-249 -135 0
-367 -133 0
-368 -134 0
-369 -135 0
-397 -133 0
-398 -134 0
-399 -135 0
-151 -136 0
-152 -137 0
-153 -138 0
-199 -136 0
-200 -137 0
-201 -138 0
-319 -136 0
-320 -137 0
-321 -138 0
-370 -136 0
-371 -137 0
-372 -138 0
-430 -136 0
-431 -137 0
-432 -138 0
-343 -139 0
-344 -140 0
-345 -141 0
-415 -139 0
-416 -140 0
-417 -141 0
-178 -142 0
-179 -143 0
-180 -144 0
-223 -142 0
-224 -143 0
-225 -144 0
-235 -142 0
-236 -143 0
-237 -144 0
-250 -142 0
-251 -143 0
-252 -144 0
-346 -142 0
-347 -143 0
-348 -144 0
-367 -142 0
-368 -143 0
-369 -144 0
-199 -145 0
-200 -146 0
-201 -147 0
-202 -148 0
-203 -149 0
-204 -150 0
-238 -148 0
-239 -149 0
-240 -150 0
-241 -148 0
-242 -149 0
-243 -150 0
-268 -148 0
-269 -149 0
-270 -150 0
-421 -148 0
-422 -149 0
-423 -150 0
-187 -151 0
-188 -152 0
-189 -153 0
-262 -151 0
-263 -152 0
-264 -153 0
-277 -151 0
-278 -152 0
-279 -153 0
-289 -151 0
-290 -152 0
-291 -153 0
-301 -151 0
-302 -152 0
-303 -153 0
-388 -151 0
-389 -152 0
-390 -153 0
-157 -154 0
-158 -155 0
-159 -156 0
-385 -154 0
-386 -155 0
-387 -156 0
-394 -154 0
-395 -155 0
-396 -156 0
-421 -154 0
-422 -155 0
-423 -156 0
-178 -157 0
-179 -158 0
-180 -159 0
-235 -160 0
-236 -161 0
-237 -162 0
-301 -160 0
-302 -161 0
-303 -162 0
-337 -160 0
-338 -161 0
-339 -162 0
-229 -163 0
-230 -164 0
-231 -165 0
-232 -163 0
-233 -164 0
-234 -165 0
-238 -163 0
-239 -164 0
-240 -165 0
-271 -163 0
-272 -164 0
-273 -165 0
-274 -166 0
-275 -167 0
-276 -168 0
-295 -166 0
-296 -167 0
-297 -168 0
-400 -166 0
-401 -167 0
-402 -168 0
-412 -166 0
-413 -167 0
-414 -168 0
-181 -169 0
-182 -170 0
-183 -171 0
-226 -169 0
-227 -170 0
-228 -171 0
-367 -169 0
-368 -170 0
-369 -171 0
-442 -169 0
-443 -170 0
-444 -171 0
-181 -172 0
-182 -173 0
-183 -174 0
-280 -172 0
-281 -173 0
-282 -174 0
-301 -172 0
-302 -173 0
-303 -174 0
-343 -172 0
-344 -173 0
-345 -174 0
-418 -172 0
-419 -173 0
-420 -174 0
-220 -175 0
-221 -176 0
-222 -177 0
-409 -175 0
-410 -176 0
-411 -177 0
-397 -178 0
-398 -179 0
-399 -180 0
-268 -181 0
-269 -182 0
-270 -183 0
-361 -181 0
-362 -182 0
-363 -183 0
-385 -181 0
-386 -182 0
-387 -183 0
-226 -184 0
-227 -185 0
-228 -186 0
-244 -184 0
-245 -185 0
-246 -186 0
-325 -184 0
-326 -185 0
-327 -186 0
-340 -184 0
-341 -185 0
-342 -186 0
-385 -184 0
-386 -185 0
-387 -186 0
-226 -187 0
-227 -188 0
-228 -189 0
-247 -190 0
-248 -191 0
-249 -192 0
-313 -190 0
-314 -191 0
-315 -192 0
-319 -190 0
-320 -191 0
-321 -192 0
-346 -190 0
-347 -191 0
-348 -192 0
-304 -193 0
-305 -194 0
-306 -195 0
-316 -193 0
-317 -194 0
-318 -195 0
-232 -196 0
-233 -197 0
-234 -198 0
-391 -196 0
-392 -197 0
-393 -198 0
-298 -199 0
-299 -200 0
-300 -201 0
-361 -199 0
-362 -200 0
-363 -201 0
-430 -199 0
-431 -200 0
-432 -201 0
-229 -202 0
-230 -203 0
-231 -204 0
-310 -202 0
-311 -203 0
-312 -204 0
-274 -205 0
-275 -206 0
-276 -207 0
-310 -205 0
-311 -206 0
-312 -207 0
-328 -205 0
-329 -206 0
-330 -207 0
-373 -205 0
-374 -206 0
-375 -207 0
-271 -211 0
-272 -212 0
-273 -213 0
-292 -211 0
-293 -212 0
-294 -213 0
-337 -214 0
-338 -215 0
-339 -216 0
-394 -214 0
-395 -215 0
-396 -216 0
-271 -217 0
-272 -218 0
-273 -219 0
-298 -217 0
-299 -218 0
-300 -219 0
-325 -217 0
-326 -218 0
-327 -219 0
-418 -217 0
-419 -218 0
-420 -219 0
-289 -220 0
-290 -221 0
-291 -222 0
-325 -220 0
-326 -221 0
-327 -222 0
-229 -223 0
-230 -224 0
-231 -225 0
-274 -226 0
-275 -227 0
-276 -228 0
-280 -232 0
-281 -233 0
-282 -234 0
-295 -232 0
-296 -233 0
-297 -234 0
-385 -235 0
-386 -236 0
-387 -237 0
-445 -235 0
-446 -236 0
-447 -237 0
-346 -238 0
-347 -239 0
-348 -240 0
-364 -238 0
-365 -239 0
-366 -240 0
-343 -241 0
-344 -242 0
-345 -243 0
-364 -244 0
-365 -245 0
-366 -246 0
-280 -247 0
-281 -248 0
-282 -249 0
-322 -247 0
-323 -248 0
-324 -249 0
-325 -247 0
-326 -248 0
-327 -249 0
-352 -247 0
-353 -248 0
-354 -249 0
-286 -250 0
-287 -251 0
-288 -252 0
-388 -250 0
-389 -251 0
-390 -252 0
-277 -253 0
-278 -254 0
-279 -255 0
-355 -253 0
-356 -254 0
-357 -255 0
-391 -253 0
-392 -254 0
-393 -255 0
-442 -253 0
-443 -254 0
-444 -255 0
-337 -256 0
-338 -257 0
-339 -258 0
-358 -256 0
-359 -257 0
-360 -258 0
-328 -259 0
-329 -260 0
-330 -261 0
-391 -259 0
-392 -260 0
-393 -261 0
-292 -265 0
-293 -266 0
-294 -267 0
-355 -265 0
-356 -266 0
-357 -267 0
-376 -265 0
-377 -266 0
-378 -267 0
-373 -268 0
-374 -269 0
-375 -270 0
-445 -268 0
-446 -269 0
-447 -270 0
-316 -271 0
-317 -272 0
-318 -273 0
-340 -274 0
-341 -275 0
-342 -276 0
-319 -277 0
-320 -278 0
-321 -279 0
-334 -280 0
-335 -281 0
-336 -282 0
-394 -280 0
-395 -281 0
-396 -282 0
-352 -283 0
-353 -284 0
-354 -285 0
-379 -283 0
-380 -284 0
-381 -285 0
-322 -286 0
-323 -287 0
-324 -288 0
-352 -289 0
-353 -290 0
-354 -291 0
-334 -292 0
-335 -293 0
-336 -294 0
-382 -292 0
-383 -293 0
-384 -294 0
-379 -295 0
-380 -296 0
-381 -297 0
-382 -295 0
-383 -296 0
-384 -297 0
-337 -301 0
-338 -302 0
-339 -303 0
-340 -301 0
-341 -302 0
-342 -303 0
-412 -301 0
-413 -302 0
-414 -303 0
-343 -304 0
-344 -305 0
-345 -306 0
-382 -304 0
-383 -305 0
-384 -306 0
-388 -304 0
-389 -305 0
-390 -306 0
-406 -304 0
-407 -305 0
-408 -306 0
-364 -307 0
-365 -308 0
-366 -309 0
-391 -307 0
-392 -308 0
-393 -309 0
-358 -310 0
-359 -311 0
-360 -312 0
-409 -310 0
-410 -311 0
-411 -312 0
-424 -310 0
-425 -311 0
-426 -312 0
-319 -313 0
-320 -314 0
-321 -315 0
-439 -313 0
-440 -314 0
-441 -315 0
-409 -316 0
-410 -317 0
-411 -318 0
-337 -319 0
-338 -320 0
-339 -321 0
-400 -319 0
-401 -320 0
-402 -321 0
-325 -322 0
-326 -323 0
-327 -324 0
-334 -322 0
-335 -323 0
-336 -324 0
-355 -322 0
-356 -323 0
-357 -324 0
-433 -325 0
-434 -326 0
-435 -327 0
-370 -328 0
-371 -329 0
-372 -330 0
-379 -328 0
-380 -329 0
-381 -330 0
-391 -328 0
-392 -329 0
-393 -330 0
-433 -328 0
-434 -329 0
-435 -330 0
-358 -331 0
-359 -332 0
-360 -333 0
-376 -334 0
-377 -335 0
-378 -336 0
-415 -334 0
-416 -335 0
-417 -336 0
-346 -340 0
-347 -341 0
-348 -342 0
-382 -343 0
-383 -344 0
-384 -345 0
-442 -346 0
-443 -347 0
-444 -348 0
-415 -349 0
-416 -350 0
-417 -351 0
-442 -349 0
-443 -350 0
-444 -351 0
-382 -352 0
-383 -353 0
-384 -354 0
-421 -355 0
-422 -356 0
-423 -357 0
-397 -358 0
-398 -359 0
-399 -360 0
-397 -361 0
-398 -362 0
-399 -363 0
-403 -367 0
-404 -368 0
-405 -369 0
-412 -376 0
-413 -377 0
-414 -378 0
-439 -388 0
-440 -389 0
-441 -390 0
-397 -394 0
-398 -395 0
-399 -396 0
-424 -394 0
-425 -395 0
-426 -396 0
-409 -397 0
-410 -398 0
-411 -399 0
-415 -397 0
-416 -398 0
-417 -399 0
-445 -397 0
-446 -398 0
-447 -399 0
-409 -403 0
-410 -404 0
-411 -405 0
-448 -406 0
-449 -407 0
-450 -408 0
-448 -409 0
-449 -410 0
-450 -411 0
-439 -418 0
-440 -419 0
-441 -420 0
-433 -424 0
-434 -425 0
-435 -426 0
-439 -433 0
-440 -434 0
-441 -435 0
